(declare-rel fail ())
(declare-rel inv2 (Int Int Int Int Int Int Int Int Int Int))
(declare-var A Int)
(declare-var B Int)
(declare-var C Int)
(declare-var D Int)
(declare-var E Int)
(declare-var F Int)
(declare-var G Int)
(declare-var H Int)
(declare-var I Int)
(declare-var J Int)
(declare-var K Int)
(declare-var L Int)
(declare-var M Int)
(rule (=> (and (= K 0)
         (= H D)
         (= M C)
         (= D A)
         (= C (* 2 A))
         (= E (* 3 A))
         (= D A)
         (= C (* 2 A))
         (= 3333 A))
    (inv2 K H M D C E D C A A)))
(rule (let ((a!1 (and (inv2 K H M D C E D C A A)
                (= I (+ K 1))
                (= L (ite (< K D) H (+ H 1)))
                (= J (ite (>= H C) (+ M 1) M)))))
  (=> a!1 (inv2 I L J D C E D C A A))))
(rule (=> (and (inv2 K H M D C E D C A A) (= K E) (not (= M K))) fail))
(query fail)

